npieces = 10;	
nplayers = 50;	
duration = [1, 1, 7, 6, 1, 9, 5, 6, 8, 1];
rehearsal = [[0, 0, 0, 0, 1, 1, 0, 0, 1, 0], [0, 0, 0, 0, 0, 1, 1, 1, 0, 0], [0, 1, 0, 1, 0, 0, 1, 1, 1, 1], [0, 0, 1, 1, 1, 1, 1, 1, 1, 1], [0, 1, 0, 1, 0, 0, 1, 1, 0, 0], [0, 0, 1, 0, 1, 0, 0, 1, 0, 0], [0, 0, 0, 1, 1, 0, 0, 0, 0, 1], [1, 0, 0, 1, 1, 1, 1, 1, 1, 0], [1, 0, 1, 0, 1, 1, 0, 1, 0, 0], [0, 1, 0, 1, 0, 1, 1, 1, 1, 0], [1, 0, 0, 0, 1, 1, 0, 0, 1, 0], [0, 0, 0, 1, 0, 0, 1, 1, 0, 1], [1, 0, 0, 1, 0, 1, 0, 1, 1, 0], [0, 1, 1, 0, 1, 1, 1, 1, 1, 0], [0, 0, 1, 0, 1, 1, 1, 1, 1, 1], [1, 0, 1, 1, 0, 0, 0, 0, 1, 0], [1, 0, 0, 0, 1, 0, 0, 0, 1, 0], [1, 0, 0, 1, 1, 0, 1, 1, 0, 0], [0, 0, 1, 0, 0, 1, 1, 1, 0, 1], [1, 1, 1, 0, 0, 0, 1, 1, 1, 0], [0, 0, 1, 0, 0, 0, 1, 0, 0, 1], [0, 0, 1, 0, 1, 0, 1, 1, 1, 1], [0, 1, 1, 0, 1, 0, 0, 0, 1, 0], [1, 0, 1, 0, 1, 0, 1, 0, 1, 0], [1, 1, 1, 0, 1, 0, 0, 0, 0, 0], [1, 1, 1, 0, 1, 0, 1, 1, 1, 1], [0, 0, 0, 1, 1, 1, 1, 1, 0, 1], [1, 1, 0, 1, 0, 1, 0, 0, 1, 1], [1, 1, 1, 0, 1, 1, 0, 0, 0, 0], [1, 0, 0, 1, 1, 1, 1, 1, 0, 0], [0, 1, 1, 1, 0, 1, 0, 0, 1, 0], [1, 0, 1, 0, 1, 1, 0, 1, 0, 0], [1, 1, 1, 0, 1, 0, 0, 0, 0, 1], [1, 1, 1, 0, 1, 0, 1, 1, 1, 0], [0, 0, 1, 0, 0, 0, 1, 1, 0, 1], [1, 1, 0, 1, 1, 0, 1, 1, 0, 1], [1, 1, 0, 0, 0, 0, 1, 1, 0, 0], [0, 0, 1, 0, 1, 0, 1, 0, 1, 0], [0, 1, 1, 1, 0, 1, 1, 0, 0, 0], [0, 0, 0, 0, 0, 1, 0, 0, 0, 1], [1, 1, 0, 1, 1, 0, 1, 1, 1, 1], [1, 1, 1, 0, 1, 0, 0, 1, 1, 1], [1, 0, 1, 0, 1, 0, 1, 0, 0, 1], [0, 1, 0, 1, 1, 1, 0, 1, 1, 1], [0, 1, 0, 0, 0, 1, 1, 1, 1, 1], [0, 0, 0, 0, 1, 0, 1, 1, 1, 1], [1, 1, 1, 1, 0, 1, 0, 0, 0, 1], [0, 1, 0, 1, 1, 1, 1, 0, 0, 0], [0, 1, 0, 1, 1, 1, 0, 1, 1, 0], [0, 1, 0, 1, 1, 1, 1, 1, 1, 1]];